Geographic Exponential Decay
20 215 40 153 191 17 63 186 132 78 113 94 304 223 7 299 102 231 170 281 86
p edge 320 1135
e 0 221 1.0
e 0 18 1.0
e 1 19 8.0
e 1 310 10.0
e 1 261 12.0
e 1 289 8.0
e 1 110 12.0
e 2 192 1.0
e 2 143 2.0
e 3 57 6.0
e 3 117 2.0
e 4 303 2.0
e 4 318 1.0
e 5 72 3.0
e 5 78 10.0
e 6 61 4.0
e 6 116 2.0
e 6 73 1.0
e 7 151 96.0
e 7 5 43.0
e 7 259 96.0
e 7 96 35.0
e 7 313 41.0
e 7 300 14.0
e 7 97 4.0
e 7 46 19.0
e 7 291 94.0
e 7 234 93.0
e 7 283 84.0
e 7 272 86.0
e 7 207 76.0
e 7 16 43.0
e 7 153 67.0
e 7 138 97.0
e 7 70 61.0
e 7 305 87.0
e 7 221 30.0
e 7 274 94.0
e 7 204 19.0
e 7 252 90.0
e 7 172 59.0
e 7 292 43.0
e 7 255 68.0
e 7 228 7.0
e 7 205 12.0
e 7 163 29.0
e 7 125 64.0
e 7 152 40.0
e 7 314 40.0
e 7 280 28.0
e 7 20 51.0
e 7 276 56.0
e 7 3 5.0
e 7 206 43.0
e 7 146 95.0
e 8 67 1.0
e 8 235 1.0
e 9 142 6.0
e 9 74 4.0
e 9 201 7.0
e 10 145 5.0
e 10 127 5.0
e 10 220 3.0
e 11 18 3.0
e 11 17 38.0
e 12 3 11.0
e 12 260 11.0
e 12 114 11.0
e 12 285 6.0
e 12 36 4.0
e 13 23 2.0
e 13 270 1.0
e 14 168 6.0
e 14 148 1.0
e 15 68 1.0
e 15 295 1.0
e 16 87 3.0
e 17 288 44.0
e 17 218 86.0
e 17 134 46.0
e 17 42 19.0
e 17 83 55.0
e 17 235 63.0
e 17 230 15.0
e 17 192 51.0
e 17 21 29.0
e 17 18 84.0
e 17 128 32.0
e 17 22 89.0
e 17 80 57.0
e 17 89 9.0
e 17 163 29.0
e 17 98 36.0
e 17 131 4.0
e 17 265 85.0
e 17 107 19.0
e 17 15 72.0
e 17 214 7.0
e 17 314 90.0
e 17 130 2.0
e 17 220 35.0
e 17 231 33.0
e 17 258 76.0
e 17 178 89.0
e 17 249 85.0
e 17 180 74.0
e 17 263 79.0
e 17 127 67.0
e 17 210 79.0
e 17 264 54.0
e 17 66 77.0
e 17 84 21.0
e 17 244 72.0
e 18 222 24.0
e 18 177 9.0
e 19 159 1.0
e 20 144 44.0
e 21 32 2.0
e 21 148 1.0
e 22 239 2.0
e 23 27 1.0
e 24 181 1.0
e 24 219 3.0
e 25 165 1.0
e 25 98 2.0
e 26 248 1.0
e 26 173 2.0
e 27 247 4.0
e 27 59 1.0
e 28 136 5.0
e 28 211 1.0
e 28 310 11.0
e 29 80 2.0
e 29 121 2.0
e 30 116 2.0
e 30 225 5.0
e 30 283 21.0
e 31 134 2.0
e 31 199 5.0
e 31 163 2.0
e 31 58 5.0
e 31 203 10.0
e 32 278 1.0
e 32 131 4.0
e 33 269 1.0
e 33 125 1.0
e 34 267 10.0
e 34 192 2.0
e 35 228 2.0
e 35 102 4.0
e 35 274 4.0
e 36 65 2.0
e 37 119 1.0
e 37 66 1.0
e 37 35 3.0
e 38 62 2.0
e 38 182 1.0
e 39 47 10.0
e 39 255 4.0
e 40 86 39.0
e 40 195 54.0
e 40 316 97.0
e 40 240 72.0
e 40 252 89.0
e 40 41 50.0
e 40 24 60.0
e 40 179 87.0
e 40 297 77.0
e 40 4 62.0
e 40 299 3.0
e 40 212 58.0
e 40 241 43.0
e 40 95 19.0
e 40 313 5.0
e 40 280 35.0
e 40 220 88.0
e 40 216 27.0
e 40 89 2.0
e 40 5 32.0
e 40 300 92.0
e 40 54 47.0
e 40 263 65.0
e 40 163 55.0
e 40 48 18.0
e 40 260 15.0
e 40 70 10.0
e 40 317 21.0
e 40 37 55.0
e 40 109 67.0
e 40 162 38.0
e 40 141 23.0
e 40 155 63.0
e 40 118 53.0
e 40 176 2.0
e 40 223 6.0
e 40 185 83.0
e 41 276 1.0
e 41 94 16.0
e 42 314 12.0
e 42 80 2.0
e 42 191 74.0
e 42 273 7.0
e 43 274 1.0
e 43 25 1.0
e 44 124 4.0
e 44 89 6.0
e 44 73 2.0
e 45 80 2.0
e 45 1 4.0
e 45 15 6.0
e 45 237 8.0
e 45 211 7.0
e 46 141 1.0
e 47 34 9.0
e 47 171 5.0
e 47 93 11.0
e 47 61 12.0
e 48 219 10.0
e 49 77 3.0
e 49 168 3.0
e 49 1 4.0
e 50 191 57.0
e 50 161 1.0
e 51 138 1.0
e 51 251 1.0
e 52 213 1.0
e 52 226 6.0
e 53 10 2.0
e 53 110 1.0
e 54 294 1.0
e 54 256 5.0
e 55 85 21.0
e 55 17 44.0
e 56 75 1.0
e 56 281 58.0
e 57 29 3.0
e 57 91 4.0
e 58 204 3.0
e 58 298 5.0
e 59 34 2.0
e 59 262 5.0
e 60 164 1.0
e 60 101 1.0
e 61 19 9.0
e 61 5 1.0
e 61 315 8.0
e 62 74 1.0
e 63 62 36.0
e 63 47 98.0
e 63 167 54.0
e 63 48 68.0
e 63 31 52.0
e 63 288 44.0
e 63 71 64.0
e 63 285 30.0
e 63 215 61.0
e 63 212 63.0
e 63 229 71.0
e 63 230 41.0
e 63 289 31.0
e 63 66 78.0
e 63 246 11.0
e 63 125 30.0
e 63 9 61.0
e 63 123 55.0
e 63 163 69.0
e 63 306 5.0
e 63 4 24.0
e 63 181 96.0
e 63 183 3.0
e 63 193 96.0
e 63 194 90.0
e 63 17 70.0
e 63 42 81.0
e 63 223 7.0
e 63 276 62.0
e 63 270 12.0
e 63 203 89.0
e 63 262 42.0
e 63 220 95.0
e 63 85 96.0
e 63 122 26.0
e 63 45 93.0
e 63 12 69.0
e 64 301 1.0
e 64 218 6.0
e 65 192 1.0
e 67 309 6.0
e 68 33 1.0
e 69 257 2.0
e 69 103 4.0
e 70 49 4.0
e 71 40 100.0
e 71 251 5.0
e 72 210 2.0
e 72 300 3.0
e 75 291 1.0
e 75 73 1.0
e 76 234 8.0
e 76 180 7.0
e 76 183 3.0
e 76 131 24.0
e 76 37 24.0
e 76 85 13.0
e 76 104 3.0
e 76 268 17.0
e 76 239 23.0
e 76 127 14.0
e 77 223 25.0
e 77 300 14.0
e 77 141 2.0
e 77 310 14.0
e 77 70 8.0
e 77 283 16.0
e 77 181 10.0
e 77 215 15.0
e 77 17 38.0
e 78 149 37.0
e 78 207 55.0
e 78 85 74.0
e 78 131 43.0
e 78 267 4.0
e 78 147 11.0
e 78 121 33.0
e 78 230 95.0
e 78 259 95.0
e 78 58 31.0
e 78 197 2.0
e 78 182 17.0
e 78 214 46.0
e 78 113 29.0
e 78 170 76.0
e 78 253 51.0
e 78 75 64.0
e 78 293 99.0
e 78 156 7.0
e 78 46 89.0
e 78 142 73.0
e 78 167 95.0
e 78 126 48.0
e 78 260 99.0
e 78 209 94.0
e 78 187 26.0
e 78 47 13.0
e 78 208 25.0
e 78 188 63.0
e 78 175 40.0
e 78 221 21.0
e 78 123 18.0
e 78 21 62.0
e 78 176 80.0
e 78 254 17.0
e 78 3 47.0
e 79 246 33.0
e 79 227 20.0
e 79 1 49.0
e 79 215 14.0
e 79 145 18.0
e 79 15 33.0
e 79 49 16.0
e 79 185 1.0
e 79 165 29.0
e 79 92 34.0
e 79 313 31.0
e 79 303 39.0
e 79 166 24.0
e 79 266 34.0
e 79 6 28.0
e 79 90 12.0
e 79 193 18.0
e 79 124 19.0
e 79 18 26.0
e 81 198 3.0
e 81 73 1.0
e 82 34 1.0
e 82 169 10.0
e 83 147 1.0
e 83 86 64.0
e 84 283 8.0
e 85 65 7.0
e 85 15 1.0
e 85 115 8.0
e 85 273 1.0
e 85 153 74.0
e 85 21 17.0
e 86 231 99.0
e 86 232 11.0
e 86 159 10.0
e 86 282 57.0
e 86 256 98.0
e 86 262 41.0
e 86 2 22.0
e 86 20 86.0
e 86 117 48.0
e 86 124 51.0
e 86 41 40.0
e 86 179 73.0
e 86 187 71.0
e 86 26 42.0
e 86 294 88.0
e 86 268 22.0
e 86 15 11.0
e 86 160 58.0
e 86 38 52.0
e 86 14 64.0
e 86 237 83.0
e 86 200 85.0
e 86 16 6.0
e 86 65 16.0
e 86 113 58.0
e 86 238 17.0
e 86 42 46.0
e 86 79 72.0
e 86 43 23.0
e 86 280 88.0
e 86 145 89.0
e 86 257 14.0
e 86 265 19.0
e 86 287 4.0
e 86 284 68.0
e 87 139 9.0
e 88 74 1.0
e 88 281 85.0
e 88 93 6.0
e 89 126 3.0
e 89 210 3.0
e 90 111 1.0
e 90 59 6.0
e 90 40 51.0
e 90 244 7.0
e 91 277 6.0
e 92 93 2.0
e 92 172 3.0
e 93 18 7.0
e 93 262 3.0
e 94 254 89.0
e 94 200 70.0
e 94 60 89.0
e 94 294 57.0
e 94 229 97.0
e 94 55 60.0
e 94 192 46.0
e 94 209 83.0
e 94 126 33.0
e 94 107 82.0
e 94 166 17.0
e 94 157 56.0
e 94 84 67.0
e 94 288 79.0
e 94 21 26.0
e 94 53 15.0
e 94 244 55.0
e 94 180 12.0
e 94 31 99.0
e 94 297 80.0
e 94 211 94.0
e 94 255 100.0
e 94 146 25.0
e 94 127 38.0
e 94 72 65.0
e 94 240 83.0
e 94 33 10.0
e 94 156 43.0
e 94 165 92.0
e 94 226 16.0
e 94 57 43.0
e 94 263 29.0
e 94 16 78.0
e 94 173 77.0
e 94 62 87.0
e 94 104 77.0
e 95 76 15.0
e 96 203 1.0
e 97 191 10.0
e 97 222 16.0
e 99 259 3.0
e 99 272 1.0
e 100 167 5.0
e 100 140 2.0
e 101 259 2.0
e 102 159 88.0
e 102 238 15.0
e 102 232 79.0
e 102 260 59.0
e 102 282 62.0
e 102 46 7.0
e 102 254 97.0
e 102 92 58.0
e 102 218 3.0
e 102 78 26.0
e 102 228 43.0
e 102 216 38.0
e 102 160 86.0
e 102 114 92.0
e 102 104 59.0
e 102 85 95.0
e 102 251 55.0
e 102 72 40.0
e 102 15 2.0
e 102 248 48.0
e 102 222 73.0
e 102 247 46.0
e 102 38 10.0
e 102 100 48.0
e 102 234 99.0
e 102 63 52.0
e 102 93 46.0
e 102 239 66.0
e 102 64 41.0
e 102 65 28.0
e 102 18 84.0
e 102 209 20.0
e 102 215 76.0
e 102 101 13.0
e 102 73 25.0
e 102 281 48.0
e 103 66 1.0
e 103 267 10.0
e 105 262 1.0
e 105 29 1.0
e 106 172 2.0
e 106 105 1.0
e 107 243 16.0
e 107 151 22.0
e 107 37 25.0
e 107 185 22.0
e 107 239 18.0
e 107 109 5.0
e 107 73 15.0
e 107 143 22.0
e 108 3 3.0
e 108 99 4.0
e 108 253 1.0
e 109 264 4.0
e 109 304 15.0
e 109 140 3.0
e 111 272 2.0
e 112 137 9.0
e 112 266 2.0
e 113 252 24.0
e 113 211 97.0
e 113 182 87.0
e 113 167 18.0
e 113 125 69.0
e 113 171 94.0
e 113 183 86.0
e 113 76 96.0
e 113 300 85.0
e 113 292 73.0
e 113 228 80.0
e 113 158 4.0
e 113 247 67.0
e 113 198 56.0
e 113 67 85.0
e 113 315 64.0
e 113 62 58.0
e 113 148 22.0
e 113 218 46.0
e 113 159 24.0
e 113 293 49.0
e 113 284 21.0
e 113 230 43.0
e 113 102 70.0
e 113 50 94.0
e 113 265 29.0
e 113 4 19.0
e 113 282 29.0
e 113 23 89.0
e 113 221 19.0
e 113 111 83.0
e 113 96 3.0
e 113 187 23.0
e 113 205 80.0
e 113 243 32.0
e 115 51 1.0
e 117 230 47.0
e 118 145 1.0
e 118 28 1.0
e 119 30 1.0
e 120 57 5.0
e 120 112 2.0
e 121 216 1.0
e 122 209 1.0
e 128 13 2.0
e 129 265 4.0
e 129 273 1.0
e 130 151 6.0
e 130 285 9.0
e 130 125 5.0
e 130 58 8.0
e 132 116 57.0
e 132 103 39.0
e 132 65 81.0
e 132 182 88.0
e 132 158 86.0
e 132 233 51.0
e 132 259 13.0
e 132 117 11.0
e 132 56 2.0
e 132 82 22.0
e 132 261 62.0
e 132 16 90.0
e 132 219 7.0
e 132 209 77.0
e 132 310 88.0
e 132 220 76.0
e 132 192 3.0
e 132 302 92.0
e 132 271 94.0
e 132 30 100.0
e 132 31 36.0
e 132 221 97.0
e 132 234 83.0
e 132 312 67.0
e 132 212 54.0
e 132 92 33.0
e 132 118 3.0
e 132 123 1.0
e 132 88 68.0
e 132 264 24.0
e 132 297 90.0
e 132 318 73.0
e 132 100 71.0
e 132 303 50.0
e 132 36 4.0
e 132 152 84.0
e 132 83 61.0
e 133 205 1.0
e 133 195 2.0
e 135 309 1.0
e 135 101 2.0
e 136 317 1.0
e 137 47 1.0
e 137 73 9.0
e 137 232 1.0
e 137 4 5.0
e 139 43 1.0
e 139 294 1.0
e 139 11 2.0
e 139 140 10.0
e 144 159 37.0
e 144 290 20.0
e 144 254 11.0
e 144 95 14.0
e 144 221 39.0
e 144 37 42.0
e 144 145 20.0
e 144 289 27.0
e 144 199 36.0
e 144 72 19.0
e 144 112 2.0
e 144 99 16.0
e 144 97 27.0
e 144 235 1.0
e 144 304 55.0
e 144 291 39.0
e 144 259 27.0
e 144 133 38.0
e 146 286 3.0
e 149 217 2.0
e 150 237 1.0
e 150 228 3.0
e 153 52 19.0
e 153 127 66.0
e 153 123 56.0
e 153 200 83.0
e 153 46 31.0
e 153 257 14.0
e 153 151 56.0
e 153 108 66.0
e 153 90 78.0
e 153 86 99.0
e 153 135 6.0
e 153 152 47.0
e 153 162 56.0
e 153 106 27.0
e 153 134 25.0
e 153 40 61.0
e 153 157 87.0
e 153 304 75.0
e 153 37 46.0
e 153 8 93.0
e 153 280 10.0
e 153 232 39.0
e 153 272 71.0
e 153 9 22.0
e 153 20 46.0
e 153 169 28.0
e 153 303 54.0
e 153 111 80.0
e 153 51 11.0
e 153 306 11.0
e 153 73 36.0
e 153 124 24.0
e 153 105 63.0
e 153 174 22.0
e 153 101 47.0
e 154 2 5.0
e 154 59 2.0
e 154 29 5.0
e 155 116 10.0
e 155 235 4.0
e 155 311 2.0
e 155 245 1.0
e 161 292 1.0
e 164 149 1.0
e 168 106 2.0
e 169 154 6.0
e 169 21 8.0
e 169 23 1.0
e 170 22 31.0
e 170 253 90.0
e 170 239 82.0
e 170 127 9.0
e 170 151 24.0
e 170 224 84.0
e 170 165 96.0
e 170 209 68.0
e 170 36 63.0
e 170 2 84.0
e 170 71 48.0
e 170 183 39.0
e 170 144 71.0
e 170 155 8.0
e 170 30 56.0
e 170 176 6.0
e 170 307 23.0
e 170 166 4.0
e 170 222 96.0
e 170 109 33.0
e 170 94 7.0
e 170 83 1.0
e 170 234 98.0
e 170 169 96.0
e 170 70 87.0
e 170 187 29.0
e 170 49 58.0
e 170 50 1.0
e 170 25 97.0
e 170 301 53.0
e 170 119 56.0
e 170 211 75.0
e 170 23 7.0
e 170 260 69.0
e 170 120 42.0
e 170 254 42.0
e 171 48 5.0
e 173 33 3.0
e 174 288 1.0
e 175 257 2.0
e 177 308 1.0
e 178 250 1.0
e 184 275 2.0
e 184 227 1.0
e 186 198 26.0
e 186 65 22.0
e 186 283 78.0
e 186 43 35.0
e 186 264 7.0
e 186 135 78.0
e 186 237 94.0
e 186 71 47.0
e 186 263 33.0
e 186 205 70.0
e 186 262 98.0
e 186 19 81.0
e 186 218 5.0
e 186 117 13.0
e 186 208 85.0
e 186 54 24.0
e 186 199 81.0
e 186 20 47.0
e 186 1 65.0
e 186 217 90.0
e 186 240 4.0
e 186 235 52.0
e 186 219 63.0
e 186 145 87.0
e 186 267 63.0
e 186 153 83.0
e 186 154 92.0
e 186 18 98.0
e 186 142 80.0
e 186 156 85.0
e 186 144 11.0
e 186 175 56.0
e 186 232 49.0
e 186 138 63.0
e 186 176 19.0
e 186 239 8.0
e 186 243 66.0
e 188 92 5.0
e 188 262 4.0
e 189 133 2.0
e 189 52 1.0
e 189 19 2.0
e 190 310 11.0
e 190 316 1.0
e 191 69 18.0
e 191 180 27.0
e 191 86 39.0
e 191 8 55.0
e 191 295 48.0
e 191 160 15.0
e 191 208 67.0
e 191 278 76.0
e 191 236 44.0
e 191 10 56.0
e 191 52 10.0
e 191 266 30.0
e 191 100 74.0
e 191 240 18.0
e 191 259 25.0
e 191 256 68.0
e 191 32 82.0
e 191 294 25.0
e 191 198 19.0
e 191 285 2.0
e 191 221 46.0
e 191 154 57.0
e 191 318 67.0
e 191 116 44.0
e 191 238 80.0
e 191 302 75.0
e 191 239 29.0
e 191 132 53.0
e 191 280 81.0
e 191 84 71.0
e 191 218 21.0
e 191 207 43.0
e 191 164 76.0
e 191 281 46.0
e 193 232 3.0
e 194 182 6.0
e 194 29 4.0
e 196 298 2.0
e 196 289 3.0
e 197 122 4.0
e 197 82 5.0
e 201 181 1.0
e 201 177 11.0
e 201 171 6.0
e 201 318 8.0
e 202 303 5.0
e 202 270 2.0
e 206 158 12.0
e 206 186 76.0
e 206 296 1.0
e 206 258 6.0
e 213 170 33.0
e 215 92 77.0
e 215 212 6.0
e 215 315 100.0
e 215 251 2.0
e 215 234 4.0
e 215 25 63.0
e 215 103 51.0
e 215 222 1.0
e 215 118 86.0
e 215 194 11.0
e 215 220 90.0
e 215 157 21.0
e 215 210 3.0
e 215 167 11.0
e 215 9 21.0
e 215 156 23.0
e 215 129 91.0
e 215 310 24.0
e 215 81 22.0
e 215 64 24.0
e 215 217 33.0
e 215 122 76.0
e 215 267 94.0
e 215 86 43.0
e 215 65 24.0
e 215 66 31.0
e 215 187 57.0
e 215 184 97.0
e 215 45 82.0
e 215 96 26.0
e 215 58 81.0
e 215 295 97.0
e 215 209 87.0
e 219 38 9.0
e 219 127 7.0
e 219 146 7.0
e 219 118 16.0
e 219 317 24.0
e 219 244 10.0
e 222 218 19.0
e 222 33 19.0
e 222 95 4.0
e 222 300 5.0
e 222 44 22.0
e 223 115 93.0
e 223 242 78.0
e 223 112 35.0
e 223 134 74.0
e 223 261 87.0
e 223 177 60.0
e 223 140 36.0
e 223 183 100.0
e 223 73 85.0
e 223 111 69.0
e 223 224 5.0
e 223 225 28.0
e 223 282 94.0
e 223 250 1.0
e 223 56 68.0
e 223 196 16.0
e 223 243 19.0
e 223 92 94.0
e 223 90 1.0
e 223 121 88.0
e 223 65 39.0
e 223 13 34.0
e 223 147 54.0
e 223 226 97.0
e 223 160 79.0
e 223 267 70.0
e 223 129 37.0
e 223 253 97.0
e 223 127 35.0
e 223 69 7.0
e 223 305 12.0
e 223 270 69.0
e 223 144 11.0
e 223 188 48.0
e 224 192 1.0
e 224 149 10.0
e 224 111 1.0
e 225 198 4.0
e 226 214 8.0
e 226 147 7.0
e 229 21 4.0
e 230 202 31.0
e 230 249 37.0
e 230 225 17.0
e 230 281 1.0
e 230 31 42.0
e 230 314 11.0
e 230 25 27.0
e 230 240 23.0
e 230 20 13.0
e 230 65 37.0
e 230 268 7.0
e 230 1 26.0
e 230 246 21.0
e 230 237 19.0
e 231 105 25.0
e 231 184 4.0
e 231 279 92.0
e 231 197 26.0
e 231 39 63.0
e 231 156 86.0
e 231 211 20.0
e 231 31 53.0
e 231 307 8.0
e 231 14 49.0
e 231 129 76.0
e 231 209 99.0
e 231 196 89.0
e 231 194 30.0
e 231 69 90.0
e 231 58 38.0
e 231 163 60.0
e 231 52 72.0
e 231 122 24.0
e 231 272 72.0
e 231 19 57.0
e 231 193 55.0
e 231 110 56.0
e 231 270 26.0
e 231 9 22.0
e 231 99 29.0
e 231 164 24.0
e 231 256 60.0
e 231 78 6.0
e 231 283 22.0
e 231 66 46.0
e 231 24 74.0
e 231 316 44.0
e 231 261 54.0
e 231 85 54.0
e 233 98 3.0
e 233 177 2.0
e 236 27 1.0
e 241 196 2.0
e 242 170 19.0
e 245 131 1.0
e 269 84 3.0
e 269 34 12.0
e 269 312 10.0
e 269 92 11.0
e 271 303 1.0
e 271 73 1.0
e 275 93 1.0
e 277 43 4.0
e 277 60 1.0
e 278 60 5.0
e 279 7 15.0
e 281 96 41.0
e 281 290 39.0
e 281 51 59.0
e 281 74 5.0
e 281 146 88.0
e 281 277 2.0
e 281 104 80.0
e 281 36 4.0
e 281 168 25.0
e 281 128 88.0
e 281 152 19.0
e 281 279 71.0
e 281 289 48.0
e 281 204 19.0
e 281 43 62.0
e 281 118 99.0
e 281 280 78.0
e 281 180 79.0
e 281 315 5.0
e 281 143 33.0
e 281 274 58.0
e 281 218 18.0
e 281 57 37.0
e 281 206 66.0
e 281 20 56.0
e 281 0 61.0
e 281 179 80.0
e 281 59 25.0
e 281 42 31.0
e 281 300 5.0
e 281 47 68.0
e 281 75 100.0
e 282 230 25.0
e 283 246 14.0
e 283 194 6.0
e 283 85 8.0
e 283 150 12.0
e 286 127 5.0
e 286 5 4.0
e 287 250 3.0
e 287 237 1.0
e 296 42 9.0
e 298 293 4.0
e 299 39 82.0
e 299 224 17.0
e 299 55 44.0
e 299 288 65.0
e 299 307 14.0
e 299 108 44.0
e 299 220 61.0
e 299 219 17.0
e 299 200 65.0
e 299 289 59.0
e 299 207 69.0
e 299 87 8.0
e 299 109 33.0
e 299 279 68.0
e 299 282 50.0
e 299 186 37.0
e 299 255 100.0
e 299 123 9.0
e 299 24 84.0
e 299 209 14.0
e 299 149 57.0
e 299 25 55.0
e 299 141 35.0
e 299 241 30.0
e 299 221 90.0
e 299 277 44.0
e 299 280 22.0
e 299 314 56.0
e 299 130 28.0
e 299 190 88.0
e 299 270 99.0
e 299 198 89.0
e 299 122 62.0
e 299 180 91.0
e 299 210 31.0
e 299 70 76.0
e 301 250 1.0
e 304 38 94.0
e 304 187 23.0
e 304 100 69.0
e 304 92 26.0
e 304 195 63.0
e 304 308 40.0
e 304 114 53.0
e 304 250 9.0
e 304 142 14.0
e 304 256 27.0
e 304 225 4.0
e 304 47 82.0
e 304 141 64.0
e 304 105 44.0
e 304 48 42.0
e 304 175 30.0
e 304 53 15.0
e 304 37 45.0
e 304 5 85.0
e 304 303 14.0
e 304 60 30.0
e 304 110 14.0
e 304 36 26.0
e 304 72 87.0
e 304 229 69.0
e 304 230 41.0
e 304 313 20.0
e 304 148 86.0
e 304 277 7.0
e 304 101 79.0
e 304 251 6.0
e 304 66 94.0
e 304 315 52.0
e 304 292 40.0
e 306 247 8.0
e 306 80 2.0
e 306 241 9.0
e 309 148 12.0
e 309 21 6.0
e 309 37 10.0
e 311 39 5.0
e 311 205 3.0
e 312 280 4.0
e 313 238 9.0
e 319 258 10.0
e 319 250 9.0
e 319 303 21.0
e 319 1 1.0
e 319 259 18.0
e 319 108 3.0
e 319 6 8.0
e 319 7 27.0
e 319 260 11.0
e 319 138 3.0
